(assert (forall ((pkt_0_4_6_0  Int  )(state_group_0_state_0_5_7_0  Int  )(state_group_0_state_1_6_8_0  Int  )) (let ((_n0 state_group_0_state_0_5_7_0 ))
(let ((_n1 2 ))
(let ((_n2 (ite (=  _n0  1)  _n1   _n0  ) ))
(let ((_n3 state_group_0_state_1_6_8_0 ))
(let ((_n4 false ))
(let ((_n5 (ite (=  _n0  1)  (ite  _n4  1 0)   _n3  ) ))
(let ((_n6 3 ))
(let ((_n7 (ite (=  _n5  999)  _n6   _n2  ) ))
(let ((_n8 (ite (=  _n2  2)  _n7   _n2  ) ))
(let ((_n9 (<   _n0   _n1 ) ))
(let ((_n10 (ite  _n9   (ite  _n4  1 0)   _n0  ) ))
(let ((_n11 (=   _n10   _n6 ) ))
(let ((_n12 (not  _n11 ) ))
(let ((_n13 (not  _n9 ) ))
(let ((_n14 (and   _n13   _n12 ) ))
(let ((_n15 (not  _n14 ) ))
(let ((_n16 (or   _n15   _n9 ) ))
(let ((_n17 999 ))
(let ((_n18 pkt_0_4_6_0 ))
(let ((_n19 (ite  _n16   (ite  _n4  1 0)   _n18  ) ))
(let ((_n20 (-  _n19 )))
(let ((_n21 (ite  _n16   (ite  _n4  1 0)   _n3  ) ))
(let ((_n22 (+   _n21   _n20 ) ))
(let ((_n23 (=   _n22   _n17 ) ))
(let ((_n24 (ite  _n16   _n4   _n23  ) ))
(let ((_n25 (or   _n24   _n16 ) ))
(let ((_n26 (ite  _n25   (ite  _n4  1 0)   _n1  ) ))
(let ((_n27 (ite  _n25   _n0   (ite  _n4  1 0)  ) ))
(let ((_n28 (+   _n27   _n26 ) ))
(let ((_n29 (not  _n24 ) ))
(let ((_n30 (or   _n29   _n16 ) ))
(let ((_n31 (ite  _n30   (ite  _n4  1 0)   _n18  ) ))
(let ((_n32 (-  _n31 )))
(let ((_n33 (not  _n30 ) ))
(let ((_n34 (+   (ite  _n33  1 0)   _n32 ) ))
(let ((_n35 (ite  _n30   (ite  _n4  1 0)   _n34  ) ))
(let ((_n36 (+   _n0   _n35 ) ))
(let ((_n37 (ite (=  (ite  _n24  1 0)  1)  _n36   _n28  ) ))
(let ((_n38 (ite (=  (ite  _n14  1 0)  1)  _n37   _n0  ) ))
(let ((_n39 (ite  _n9   _n0   (ite  _n4  1 0)  ) ))
(let ((_n40 (=   _n39   (ite  _n4  1 0) ) ))
(let ((_n41 (not  _n40 ) ))
(let ((_n42 (and   _n9   _n41 ) ))
(let ((_n43 (or   _n42   _n13 ) ))
(let ((_n44 (ite  _n43   _n0   (ite  _n4  1 0)  ) ))
(let ((_n45 (and   _n42   _n9 ) ))
(let ((_n46 (ite  _n45   _n1   (ite  _n4  1 0)  ) ))
(let ((_n47 (ite  _n45   (ite  _n4  1 0)   _n0  ) ))
(let ((_n48 (+   _n47   _n46 ) ))
(let ((_n49 (ite (=  (ite  _n42  1 0)  1)  _n48   _n44  ) ))
(let ((_n50 (ite (=  (ite  _n9  1 0)  1)  _n49   _n38  ) ))
(let ((_n51 (=   _n50   _n8 ) ))
(let ((_n53 true ))
(let ((_n54 (+   _n5   (ite  _n53  1 0) ) ))
(let ((_n55 (ite (=  _n2  2)  _n54   _n5  ) ))
(let ((_n56 (-  _n26 )))
(let ((_n57 (ite  _n25   (ite  _n4  1 0)   _n6  ) ))
(let ((_n58 (+   _n57   _n56 ) ))
(let ((_n59 (ite  _n25   (ite  _n4  1 0)   _n58  ) ))
(let ((_n60 (+   _n3   _n59 ) ))
(let ((_n61 (-  (ite  _n33  1 0) )))
(let ((_n62 (ite  _n30   (ite  _n4  1 0)   _n1  ) ))
(let ((_n63 (+   _n62   _n61 ) ))
(let ((_n64 (ite  _n30   (ite  _n4  1 0)   _n63  ) ))
(let ((_n65 (+   _n3   _n64 ) ))
(let ((_n66 (ite (=  (ite  _n24  1 0)  1)  _n65   _n60  ) ))
(let ((_n67 (ite (=  (ite  _n14  1 0)  1)  _n66   _n3  ) ))
(let ((_n68 (ite  _n45   (ite  _n4  1 0)   _n3  ) ))
(let ((_n69 (+   _n68   (ite  _n45  1 0) ) ))
(let ((_n70 (ite (=  (ite  _n42  1 0)  1)  _n69   _n3  ) ))
(let ((_n71 (ite (=  (ite  _n9  1 0)  1)  _n70   _n67  ) ))
(let ((_n72 (=   _n71   _n55 ) ))
(implies  (and (and (>= state_group_0_state_1_6_8_0 0) (< state_group_0_state_1_6_8_0 1024 ))  (and (and (>= state_group_0_state_0_5_7_0 0) (< state_group_0_state_0_5_7_0 1024 ))  (and (>= pkt_0_4_6_0 0) (< pkt_0_4_6_0 1024 )) ) )   (and  _n51  _n72 )  )))))))))))))))))))))))))))))))))))))))))))))))))))))))))))))))))))))))))))
(check-sat)
(get-model)
(exit)